p edge 20 59
e 1 3
e 1 4
e 1 5
e 1 10
e 1 11
e 1 15
e 1 16
e 2 8
e 2 9
e 2 17
e 3 7
e 3 8
e 3 12
e 3 18
e 4 6
e 4 12
e 4 14
e 4 20
e 5 9
e 5 10
e 5 13
e 5 16
e 5 17
e 6 7
e 6 8
e 6 11
e 6 12
e 6 14
e 6 15
e 7 8
e 7 9
e 7 12
e 7 16
e 7 19
e 8 9
e 8 19
e 8 20
e 9 10
e 9 12
e 9 15
e 10 12
e 10 13
e 10 14
e 10 16
e 10 18
e 10 19
e 11 12
e 11 13
e 11 14
e 11 16
e 11 19
e 12 14
e 12 18
e 13 16
e 14 16
e 14 17
e 15 16
e 16 19
e 19 20